c Standarized MaxSat Instance
c{
c "sha1sum": "27be4ef613e5f666e51152bb80f344d412824ec6",
c "nvars": 336,
c "ncls": 1562,
c "total_lits": 4298,
c "nhards": 1512,
c "nhard_nlits": 4248,
c "nhard_len_stats":
c    { "min": 1,
c      "max": 3,
c      "ave": 2.8095,
c      "stddev": 0.3944 },
c "nsofts": 50,
c "nsoft_nlits": 50,
c "nsoft_len_stats":
c    { "min": 1,
c      "max": 1,
c      "ave": 1.0000,
c      "stddev": 0.0000 },
c "nsoft_wts": 1,
c "soft_wt_stats":
c    { "min": 1,
c      "max": 1,
c      "ave": 1.0000,
c      "stddev": 0.0000 }
c}
c------------------------------------------------------------
c This instance encodes a supposedly trivial MaxSAT formula.
c The hard part of the formula encodes a cardinality constraint:
c     x1 + ... + x50 <= 20
c Cardinality encoding used is 'tot'.
c The soft part prefers all the variables to be set to true:
c     x1 = 1, ..., x50 = 1
c As a result, the optimum cost for this formula is 30.
c
1 1 0
1 2 0
1 3 0
1 4 0
1 5 0
1 6 0
1 7 0
1 8 0
1 9 0
1 10 0
1 11 0
1 12 0
1 13 0
1 14 0
1 15 0
1 16 0
1 17 0
1 18 0
1 19 0
1 20 0
1 21 0
1 22 0
1 23 0
1 24 0
1 25 0
1 26 0
1 27 0
1 28 0
1 29 0
1 30 0
1 31 0
1 32 0
1 33 0
1 34 0
1 35 0
1 36 0
1 37 0
1 38 0
1 39 0
1 40 0
1 41 0
1 42 0
1 43 0
1 44 0
1 45 0
1 46 0
1 47 0
1 48 0
1 49 0
1 50 0
h -126 51 0
h -127 52 0
h -128 53 0
h -129 54 0
h -130 55 0
h -131 56 0
h -132 57 0
h -133 58 0
h -134 59 0
h -135 60 0
h -136 61 0
h -137 62 0
h -138 63 0
h -139 64 0
h -140 65 0
h -141 66 0
h -142 67 0
h -143 68 0
h -144 69 0
h -145 70 0
h -146 71 0
h -147 72 0
h -148 73 0
h -149 74 0
h -150 75 0
h -101 51 0
h -102 52 0
h -103 53 0
h -104 54 0
h -105 55 0
h -106 56 0
h -107 57 0
h -108 58 0
h -109 59 0
h -110 60 0
h -111 61 0
h -112 62 0
h -113 63 0
h -114 64 0
h -115 65 0
h -116 66 0
h -117 67 0
h -118 68 0
h -119 69 0
h -120 70 0
h -121 71 0
h -122 72 0
h -123 73 0
h -124 74 0
h -125 75 0
h -101 -126 52 0
h -101 -127 53 0
h -101 -128 54 0
h -101 -129 55 0
h -101 -130 56 0
h -101 -131 57 0
h -101 -132 58 0
h -101 -133 59 0
h -101 -134 60 0
h -101 -135 61 0
h -101 -136 62 0
h -101 -137 63 0
h -101 -138 64 0
h -101 -139 65 0
h -101 -140 66 0
h -101 -141 67 0
h -101 -142 68 0
h -101 -143 69 0
h -101 -144 70 0
h -101 -145 71 0
h -101 -146 72 0
h -101 -147 73 0
h -101 -148 74 0
h -101 -149 75 0
h -101 -150 76 0
h -102 -126 53 0
h -102 -127 54 0
h -102 -128 55 0
h -102 -129 56 0
h -102 -130 57 0
h -102 -131 58 0
h -102 -132 59 0
h -102 -133 60 0
h -102 -134 61 0
h -102 -135 62 0
h -102 -136 63 0
h -102 -137 64 0
h -102 -138 65 0
h -102 -139 66 0
h -102 -140 67 0
h -102 -141 68 0
h -102 -142 69 0
h -102 -143 70 0
h -102 -144 71 0
h -102 -145 72 0
h -102 -146 73 0
h -102 -147 74 0
h -102 -148 75 0
h -102 -149 76 0
h -102 -150 77 0
h -103 -126 54 0
h -103 -127 55 0
h -103 -128 56 0
h -103 -129 57 0
h -103 -130 58 0
h -103 -131 59 0
h -103 -132 60 0
h -103 -133 61 0
h -103 -134 62 0
h -103 -135 63 0
h -103 -136 64 0
h -103 -137 65 0
h -103 -138 66 0
h -103 -139 67 0
h -103 -140 68 0
h -103 -141 69 0
h -103 -142 70 0
h -103 -143 71 0
h -103 -144 72 0
h -103 -145 73 0
h -103 -146 74 0
h -103 -147 75 0
h -103 -148 76 0
h -103 -149 77 0
h -103 -150 78 0
h -104 -126 55 0
h -104 -127 56 0
h -104 -128 57 0
h -104 -129 58 0
h -104 -130 59 0
h -104 -131 60 0
h -104 -132 61 0
h -104 -133 62 0
h -104 -134 63 0
h -104 -135 64 0
h -104 -136 65 0
h -104 -137 66 0
h -104 -138 67 0
h -104 -139 68 0
h -104 -140 69 0
h -104 -141 70 0
h -104 -142 71 0
h -104 -143 72 0
h -104 -144 73 0
h -104 -145 74 0
h -104 -146 75 0
h -104 -147 76 0
h -104 -148 77 0
h -104 -149 78 0
h -104 -150 79 0
h -105 -126 56 0
h -105 -127 57 0
h -105 -128 58 0
h -105 -129 59 0
h -105 -130 60 0
h -105 -131 61 0
h -105 -132 62 0
h -105 -133 63 0
h -105 -134 64 0
h -105 -135 65 0
h -105 -136 66 0
h -105 -137 67 0
h -105 -138 68 0
h -105 -139 69 0
h -105 -140 70 0
h -105 -141 71 0
h -105 -142 72 0
h -105 -143 73 0
h -105 -144 74 0
h -105 -145 75 0
h -105 -146 76 0
h -105 -147 77 0
h -105 -148 78 0
h -105 -149 79 0
h -105 -150 80 0
h -106 -126 57 0
h -106 -127 58 0
h -106 -128 59 0
h -106 -129 60 0
h -106 -130 61 0
h -106 -131 62 0
h -106 -132 63 0
h -106 -133 64 0
h -106 -134 65 0
h -106 -135 66 0
h -106 -136 67 0
h -106 -137 68 0
h -106 -138 69 0
h -106 -139 70 0
h -106 -140 71 0
h -106 -141 72 0
h -106 -142 73 0
h -106 -143 74 0
h -106 -144 75 0
h -106 -145 76 0
h -106 -146 77 0
h -106 -147 78 0
h -106 -148 79 0
h -106 -149 80 0
h -106 -150 81 0
h -107 -126 58 0
h -107 -127 59 0
h -107 -128 60 0
h -107 -129 61 0
h -107 -130 62 0
h -107 -131 63 0
h -107 -132 64 0
h -107 -133 65 0
h -107 -134 66 0
h -107 -135 67 0
h -107 -136 68 0
h -107 -137 69 0
h -107 -138 70 0
h -107 -139 71 0
h -107 -140 72 0
h -107 -141 73 0
h -107 -142 74 0
h -107 -143 75 0
h -107 -144 76 0
h -107 -145 77 0
h -107 -146 78 0
h -107 -147 79 0
h -107 -148 80 0
h -107 -149 81 0
h -107 -150 82 0
h -108 -126 59 0
h -108 -127 60 0
h -108 -128 61 0
h -108 -129 62 0
h -108 -130 63 0
h -108 -131 64 0
h -108 -132 65 0
h -108 -133 66 0
h -108 -134 67 0
h -108 -135 68 0
h -108 -136 69 0
h -108 -137 70 0
h -108 -138 71 0
h -108 -139 72 0
h -108 -140 73 0
h -108 -141 74 0
h -108 -142 75 0
h -108 -143 76 0
h -108 -144 77 0
h -108 -145 78 0
h -108 -146 79 0
h -108 -147 80 0
h -108 -148 81 0
h -108 -149 82 0
h -108 -150 83 0
h -109 -126 60 0
h -109 -127 61 0
h -109 -128 62 0
h -109 -129 63 0
h -109 -130 64 0
h -109 -131 65 0
h -109 -132 66 0
h -109 -133 67 0
h -109 -134 68 0
h -109 -135 69 0
h -109 -136 70 0
h -109 -137 71 0
h -109 -138 72 0
h -109 -139 73 0
h -109 -140 74 0
h -109 -141 75 0
h -109 -142 76 0
h -109 -143 77 0
h -109 -144 78 0
h -109 -145 79 0
h -109 -146 80 0
h -109 -147 81 0
h -109 -148 82 0
h -109 -149 83 0
h -109 -150 84 0
h -110 -126 61 0
h -110 -127 62 0
h -110 -128 63 0
h -110 -129 64 0
h -110 -130 65 0
h -110 -131 66 0
h -110 -132 67 0
h -110 -133 68 0
h -110 -134 69 0
h -110 -135 70 0
h -110 -136 71 0
h -110 -137 72 0
h -110 -138 73 0
h -110 -139 74 0
h -110 -140 75 0
h -110 -141 76 0
h -110 -142 77 0
h -110 -143 78 0
h -110 -144 79 0
h -110 -145 80 0
h -110 -146 81 0
h -110 -147 82 0
h -110 -148 83 0
h -110 -149 84 0
h -110 -150 85 0
h -111 -126 62 0
h -111 -127 63 0
h -111 -128 64 0
h -111 -129 65 0
h -111 -130 66 0
h -111 -131 67 0
h -111 -132 68 0
h -111 -133 69 0
h -111 -134 70 0
h -111 -135 71 0
h -111 -136 72 0
h -111 -137 73 0
h -111 -138 74 0
h -111 -139 75 0
h -111 -140 76 0
h -111 -141 77 0
h -111 -142 78 0
h -111 -143 79 0
h -111 -144 80 0
h -111 -145 81 0
h -111 -146 82 0
h -111 -147 83 0
h -111 -148 84 0
h -111 -149 85 0
h -111 -150 86 0
h -112 -126 63 0
h -112 -127 64 0
h -112 -128 65 0
h -112 -129 66 0
h -112 -130 67 0
h -112 -131 68 0
h -112 -132 69 0
h -112 -133 70 0
h -112 -134 71 0
h -112 -135 72 0
h -112 -136 73 0
h -112 -137 74 0
h -112 -138 75 0
h -112 -139 76 0
h -112 -140 77 0
h -112 -141 78 0
h -112 -142 79 0
h -112 -143 80 0
h -112 -144 81 0
h -112 -145 82 0
h -112 -146 83 0
h -112 -147 84 0
h -112 -148 85 0
h -112 -149 86 0
h -112 -150 87 0
h -113 -126 64 0
h -113 -127 65 0
h -113 -128 66 0
h -113 -129 67 0
h -113 -130 68 0
h -113 -131 69 0
h -113 -132 70 0
h -113 -133 71 0
h -113 -134 72 0
h -113 -135 73 0
h -113 -136 74 0
h -113 -137 75 0
h -113 -138 76 0
h -113 -139 77 0
h -113 -140 78 0
h -113 -141 79 0
h -113 -142 80 0
h -113 -143 81 0
h -113 -144 82 0
h -113 -145 83 0
h -113 -146 84 0
h -113 -147 85 0
h -113 -148 86 0
h -113 -149 87 0
h -113 -150 88 0
h -114 -126 65 0
h -114 -127 66 0
h -114 -128 67 0
h -114 -129 68 0
h -114 -130 69 0
h -114 -131 70 0
h -114 -132 71 0
h -114 -133 72 0
h -114 -134 73 0
h -114 -135 74 0
h -114 -136 75 0
h -114 -137 76 0
h -114 -138 77 0
h -114 -139 78 0
h -114 -140 79 0
h -114 -141 80 0
h -114 -142 81 0
h -114 -143 82 0
h -114 -144 83 0
h -114 -145 84 0
h -114 -146 85 0
h -114 -147 86 0
h -114 -148 87 0
h -114 -149 88 0
h -114 -150 89 0
h -115 -126 66 0
h -115 -127 67 0
h -115 -128 68 0
h -115 -129 69 0
h -115 -130 70 0
h -115 -131 71 0
h -115 -132 72 0
h -115 -133 73 0
h -115 -134 74 0
h -115 -135 75 0
h -115 -136 76 0
h -115 -137 77 0
h -115 -138 78 0
h -115 -139 79 0
h -115 -140 80 0
h -115 -141 81 0
h -115 -142 82 0
h -115 -143 83 0
h -115 -144 84 0
h -115 -145 85 0
h -115 -146 86 0
h -115 -147 87 0
h -115 -148 88 0
h -115 -149 89 0
h -115 -150 90 0
h -116 -126 67 0
h -116 -127 68 0
h -116 -128 69 0
h -116 -129 70 0
h -116 -130 71 0
h -116 -131 72 0
h -116 -132 73 0
h -116 -133 74 0
h -116 -134 75 0
h -116 -135 76 0
h -116 -136 77 0
h -116 -137 78 0
h -116 -138 79 0
h -116 -139 80 0
h -116 -140 81 0
h -116 -141 82 0
h -116 -142 83 0
h -116 -143 84 0
h -116 -144 85 0
h -116 -145 86 0
h -116 -146 87 0
h -116 -147 88 0
h -116 -148 89 0
h -116 -149 90 0
h -116 -150 91 0
h -117 -126 68 0
h -117 -127 69 0
h -117 -128 70 0
h -117 -129 71 0
h -117 -130 72 0
h -117 -131 73 0
h -117 -132 74 0
h -117 -133 75 0
h -117 -134 76 0
h -117 -135 77 0
h -117 -136 78 0
h -117 -137 79 0
h -117 -138 80 0
h -117 -139 81 0
h -117 -140 82 0
h -117 -141 83 0
h -117 -142 84 0
h -117 -143 85 0
h -117 -144 86 0
h -117 -145 87 0
h -117 -146 88 0
h -117 -147 89 0
h -117 -148 90 0
h -117 -149 91 0
h -117 -150 92 0
h -118 -126 69 0
h -118 -127 70 0
h -118 -128 71 0
h -118 -129 72 0
h -118 -130 73 0
h -118 -131 74 0
h -118 -132 75 0
h -118 -133 76 0
h -118 -134 77 0
h -118 -135 78 0
h -118 -136 79 0
h -118 -137 80 0
h -118 -138 81 0
h -118 -139 82 0
h -118 -140 83 0
h -118 -141 84 0
h -118 -142 85 0
h -118 -143 86 0
h -118 -144 87 0
h -118 -145 88 0
h -118 -146 89 0
h -118 -147 90 0
h -118 -148 91 0
h -118 -149 92 0
h -118 -150 93 0
h -119 -126 70 0
h -119 -127 71 0
h -119 -128 72 0
h -119 -129 73 0
h -119 -130 74 0
h -119 -131 75 0
h -119 -132 76 0
h -119 -133 77 0
h -119 -134 78 0
h -119 -135 79 0
h -119 -136 80 0
h -119 -137 81 0
h -119 -138 82 0
h -119 -139 83 0
h -119 -140 84 0
h -119 -141 85 0
h -119 -142 86 0
h -119 -143 87 0
h -119 -144 88 0
h -119 -145 89 0
h -119 -146 90 0
h -119 -147 91 0
h -119 -148 92 0
h -119 -149 93 0
h -119 -150 94 0
h -120 -126 71 0
h -120 -127 72 0
h -120 -128 73 0
h -120 -129 74 0
h -120 -130 75 0
h -120 -131 76 0
h -120 -132 77 0
h -120 -133 78 0
h -120 -134 79 0
h -120 -135 80 0
h -120 -136 81 0
h -120 -137 82 0
h -120 -138 83 0
h -120 -139 84 0
h -120 -140 85 0
h -120 -141 86 0
h -120 -142 87 0
h -120 -143 88 0
h -120 -144 89 0
h -120 -145 90 0
h -120 -146 91 0
h -120 -147 92 0
h -120 -148 93 0
h -120 -149 94 0
h -120 -150 95 0
h -121 -126 72 0
h -121 -127 73 0
h -121 -128 74 0
h -121 -129 75 0
h -121 -130 76 0
h -121 -131 77 0
h -121 -132 78 0
h -121 -133 79 0
h -121 -134 80 0
h -121 -135 81 0
h -121 -136 82 0
h -121 -137 83 0
h -121 -138 84 0
h -121 -139 85 0
h -121 -140 86 0
h -121 -141 87 0
h -121 -142 88 0
h -121 -143 89 0
h -121 -144 90 0
h -121 -145 91 0
h -121 -146 92 0
h -121 -147 93 0
h -121 -148 94 0
h -121 -149 95 0
h -121 -150 96 0
h -122 -126 73 0
h -122 -127 74 0
h -122 -128 75 0
h -122 -129 76 0
h -122 -130 77 0
h -122 -131 78 0
h -122 -132 79 0
h -122 -133 80 0
h -122 -134 81 0
h -122 -135 82 0
h -122 -136 83 0
h -122 -137 84 0
h -122 -138 85 0
h -122 -139 86 0
h -122 -140 87 0
h -122 -141 88 0
h -122 -142 89 0
h -122 -143 90 0
h -122 -144 91 0
h -122 -145 92 0
h -122 -146 93 0
h -122 -147 94 0
h -122 -148 95 0
h -122 -149 96 0
h -122 -150 97 0
h -123 -126 74 0
h -123 -127 75 0
h -123 -128 76 0
h -123 -129 77 0
h -123 -130 78 0
h -123 -131 79 0
h -123 -132 80 0
h -123 -133 81 0
h -123 -134 82 0
h -123 -135 83 0
h -123 -136 84 0
h -123 -137 85 0
h -123 -138 86 0
h -123 -139 87 0
h -123 -140 88 0
h -123 -141 89 0
h -123 -142 90 0
h -123 -143 91 0
h -123 -144 92 0
h -123 -145 93 0
h -123 -146 94 0
h -123 -147 95 0
h -123 -148 96 0
h -123 -149 97 0
h -123 -150 98 0
h -124 -126 75 0
h -124 -127 76 0
h -124 -128 77 0
h -124 -129 78 0
h -124 -130 79 0
h -124 -131 80 0
h -124 -132 81 0
h -124 -133 82 0
h -124 -134 83 0
h -124 -135 84 0
h -124 -136 85 0
h -124 -137 86 0
h -124 -138 87 0
h -124 -139 88 0
h -124 -140 89 0
h -124 -141 90 0
h -124 -142 91 0
h -124 -143 92 0
h -124 -144 93 0
h -124 -145 94 0
h -124 -146 95 0
h -124 -147 96 0
h -124 -148 97 0
h -124 -149 98 0
h -124 -150 99 0
h -125 -126 76 0
h -125 -127 77 0
h -125 -128 78 0
h -125 -129 79 0
h -125 -130 80 0
h -125 -131 81 0
h -125 -132 82 0
h -125 -133 83 0
h -125 -134 84 0
h -125 -135 85 0
h -125 -136 86 0
h -125 -137 87 0
h -125 -138 88 0
h -125 -139 89 0
h -125 -140 90 0
h -125 -141 91 0
h -125 -142 92 0
h -125 -143 93 0
h -125 -144 94 0
h -125 -145 95 0
h -125 -146 96 0
h -125 -147 97 0
h -125 -148 98 0
h -125 -149 99 0
h -125 -150 100 0
h -164 126 0
h -165 127 0
h -166 128 0
h -167 129 0
h -168 130 0
h -169 131 0
h -170 132 0
h -171 133 0
h -172 134 0
h -173 135 0
h -174 136 0
h -175 137 0
h -151 126 0
h -152 127 0
h -153 128 0
h -154 129 0
h -155 130 0
h -156 131 0
h -157 132 0
h -158 133 0
h -159 134 0
h -160 135 0
h -161 136 0
h -162 137 0
h -163 138 0
h -151 -164 127 0
h -151 -165 128 0
h -151 -166 129 0
h -151 -167 130 0
h -151 -168 131 0
h -151 -169 132 0
h -151 -170 133 0
h -151 -171 134 0
h -151 -172 135 0
h -151 -173 136 0
h -151 -174 137 0
h -151 -175 138 0
h -152 -164 128 0
h -152 -165 129 0
h -152 -166 130 0
h -152 -167 131 0
h -152 -168 132 0
h -152 -169 133 0
h -152 -170 134 0
h -152 -171 135 0
h -152 -172 136 0
h -152 -173 137 0
h -152 -174 138 0
h -152 -175 139 0
h -153 -164 129 0
h -153 -165 130 0
h -153 -166 131 0
h -153 -167 132 0
h -153 -168 133 0
h -153 -169 134 0
h -153 -170 135 0
h -153 -171 136 0
h -153 -172 137 0
h -153 -173 138 0
h -153 -174 139 0
h -153 -175 140 0
h -154 -164 130 0
h -154 -165 131 0
h -154 -166 132 0
h -154 -167 133 0
h -154 -168 134 0
h -154 -169 135 0
h -154 -170 136 0
h -154 -171 137 0
h -154 -172 138 0
h -154 -173 139 0
h -154 -174 140 0
h -154 -175 141 0
h -155 -164 131 0
h -155 -165 132 0
h -155 -166 133 0
h -155 -167 134 0
h -155 -168 135 0
h -155 -169 136 0
h -155 -170 137 0
h -155 -171 138 0
h -155 -172 139 0
h -155 -173 140 0
h -155 -174 141 0
h -155 -175 142 0
h -156 -164 132 0
h -156 -165 133 0
h -156 -166 134 0
h -156 -167 135 0
h -156 -168 136 0
h -156 -169 137 0
h -156 -170 138 0
h -156 -171 139 0
h -156 -172 140 0
h -156 -173 141 0
h -156 -174 142 0
h -156 -175 143 0
h -157 -164 133 0
h -157 -165 134 0
h -157 -166 135 0
h -157 -167 136 0
h -157 -168 137 0
h -157 -169 138 0
h -157 -170 139 0
h -157 -171 140 0
h -157 -172 141 0
h -157 -173 142 0
h -157 -174 143 0
h -157 -175 144 0
h -158 -164 134 0
h -158 -165 135 0
h -158 -166 136 0
h -158 -167 137 0
h -158 -168 138 0
h -158 -169 139 0
h -158 -170 140 0
h -158 -171 141 0
h -158 -172 142 0
h -158 -173 143 0
h -158 -174 144 0
h -158 -175 145 0
h -159 -164 135 0
h -159 -165 136 0
h -159 -166 137 0
h -159 -167 138 0
h -159 -168 139 0
h -159 -169 140 0
h -159 -170 141 0
h -159 -171 142 0
h -159 -172 143 0
h -159 -173 144 0
h -159 -174 145 0
h -159 -175 146 0
h -160 -164 136 0
h -160 -165 137 0
h -160 -166 138 0
h -160 -167 139 0
h -160 -168 140 0
h -160 -169 141 0
h -160 -170 142 0
h -160 -171 143 0
h -160 -172 144 0
h -160 -173 145 0
h -160 -174 146 0
h -160 -175 147 0
h -161 -164 137 0
h -161 -165 138 0
h -161 -166 139 0
h -161 -167 140 0
h -161 -168 141 0
h -161 -169 142 0
h -161 -170 143 0
h -161 -171 144 0
h -161 -172 145 0
h -161 -173 146 0
h -161 -174 147 0
h -161 -175 148 0
h -162 -164 138 0
h -162 -165 139 0
h -162 -166 140 0
h -162 -167 141 0
h -162 -168 142 0
h -162 -169 143 0
h -162 -170 144 0
h -162 -171 145 0
h -162 -172 146 0
h -162 -173 147 0
h -162 -174 148 0
h -162 -175 149 0
h -163 -164 139 0
h -163 -165 140 0
h -163 -166 141 0
h -163 -167 142 0
h -163 -168 143 0
h -163 -169 144 0
h -163 -170 145 0
h -163 -171 146 0
h -163 -172 147 0
h -163 -173 148 0
h -163 -174 149 0
h -163 -175 150 0
h -182 164 0
h -183 165 0
h -184 166 0
h -185 167 0
h -186 168 0
h -187 169 0
h -176 164 0
h -177 165 0
h -178 166 0
h -179 167 0
h -180 168 0
h -181 169 0
h -176 -182 165 0
h -176 -183 166 0
h -176 -184 167 0
h -176 -185 168 0
h -176 -186 169 0
h -176 -187 170 0
h -177 -182 166 0
h -177 -183 167 0
h -177 -184 168 0
h -177 -185 169 0
h -177 -186 170 0
h -177 -187 171 0
h -178 -182 167 0
h -178 -183 168 0
h -178 -184 169 0
h -178 -185 170 0
h -178 -186 171 0
h -178 -187 172 0
h -179 -182 168 0
h -179 -183 169 0
h -179 -184 170 0
h -179 -185 171 0
h -179 -186 172 0
h -179 -187 173 0
h -180 -182 169 0
h -180 -183 170 0
h -180 -184 171 0
h -180 -185 172 0
h -180 -186 173 0
h -180 -187 174 0
h -181 -182 170 0
h -181 -183 171 0
h -181 -184 172 0
h -181 -185 173 0
h -181 -186 174 0
h -181 -187 175 0
h -191 182 0
h -192 183 0
h -193 184 0
h -188 182 0
h -189 183 0
h -190 184 0
h -188 -191 183 0
h -188 -192 184 0
h -188 -193 185 0
h -189 -191 184 0
h -189 -192 185 0
h -189 -193 186 0
h -190 -191 185 0
h -190 -192 186 0
h -190 -193 187 0
h -50 191 0
h -194 191 0
h -195 192 0
h -194 -50 192 0
h -195 -50 193 0
h -49 194 0
h -48 194 0
h -48 -49 195 0
h -47 188 0
h -196 188 0
h -197 189 0
h -196 -47 189 0
h -197 -47 190 0
h -46 196 0
h -45 196 0
h -45 -46 197 0
h -201 176 0
h -202 177 0
h -203 178 0
h -198 176 0
h -199 177 0
h -200 178 0
h -198 -201 177 0
h -198 -202 178 0
h -198 -203 179 0
h -199 -201 178 0
h -199 -202 179 0
h -199 -203 180 0
h -200 -201 179 0
h -200 -202 180 0
h -200 -203 181 0
h -44 201 0
h -204 201 0
h -205 202 0
h -204 -44 202 0
h -205 -44 203 0
h -43 204 0
h -42 204 0
h -42 -43 205 0
h -41 198 0
h -206 198 0
h -207 199 0
h -206 -41 199 0
h -207 -41 200 0
h -40 206 0
h -39 206 0
h -39 -40 207 0
h -215 151 0
h -216 152 0
h -217 153 0
h -218 154 0
h -219 155 0
h -220 156 0
h -208 151 0
h -209 152 0
h -210 153 0
h -211 154 0
h -212 155 0
h -213 156 0
h -214 157 0
h -208 -215 152 0
h -208 -216 153 0
h -208 -217 154 0
h -208 -218 155 0
h -208 -219 156 0
h -208 -220 157 0
h -209 -215 153 0
h -209 -216 154 0
h -209 -217 155 0
h -209 -218 156 0
h -209 -219 157 0
h -209 -220 158 0
h -210 -215 154 0
h -210 -216 155 0
h -210 -217 156 0
h -210 -218 157 0
h -210 -219 158 0
h -210 -220 159 0
h -211 -215 155 0
h -211 -216 156 0
h -211 -217 157 0
h -211 -218 158 0
h -211 -219 159 0
h -211 -220 160 0
h -212 -215 156 0
h -212 -216 157 0
h -212 -217 158 0
h -212 -218 159 0
h -212 -219 160 0
h -212 -220 161 0
h -213 -215 157 0
h -213 -216 158 0
h -213 -217 159 0
h -213 -218 160 0
h -213 -219 161 0
h -213 -220 162 0
h -214 -215 158 0
h -214 -216 159 0
h -214 -217 160 0
h -214 -218 161 0
h -214 -219 162 0
h -214 -220 163 0
h -224 215 0
h -225 216 0
h -226 217 0
h -221 215 0
h -222 216 0
h -223 217 0
h -221 -224 216 0
h -221 -225 217 0
h -221 -226 218 0
h -222 -224 217 0
h -222 -225 218 0
h -222 -226 219 0
h -223 -224 218 0
h -223 -225 219 0
h -223 -226 220 0
h -38 224 0
h -227 224 0
h -228 225 0
h -227 -38 225 0
h -228 -38 226 0
h -37 227 0
h -36 227 0
h -36 -37 228 0
h -35 221 0
h -229 221 0
h -230 222 0
h -229 -35 222 0
h -230 -35 223 0
h -34 229 0
h -33 229 0
h -33 -34 230 0
h -235 208 0
h -236 209 0
h -237 210 0
h -231 208 0
h -232 209 0
h -233 210 0
h -234 211 0
h -231 -235 209 0
h -231 -236 210 0
h -231 -237 211 0
h -232 -235 210 0
h -232 -236 211 0
h -232 -237 212 0
h -233 -235 211 0
h -233 -236 212 0
h -233 -237 213 0
h -234 -235 212 0
h -234 -236 213 0
h -234 -237 214 0
h -32 235 0
h -238 235 0
h -239 236 0
h -238 -32 236 0
h -239 -32 237 0
h -31 238 0
h -30 238 0
h -30 -31 239 0
h -242 231 0
h -243 232 0
h -240 231 0
h -241 232 0
h -240 -242 232 0
h -240 -243 233 0
h -241 -242 233 0
h -241 -243 234 0
h -29 242 0
h -28 242 0
h -28 -29 243 0
h -27 240 0
h -26 240 0
h -26 -27 241 0
h -257 101 0
h -258 102 0
h -259 103 0
h -260 104 0
h -261 105 0
h -262 106 0
h -263 107 0
h -264 108 0
h -265 109 0
h -266 110 0
h -267 111 0
h -268 112 0
h -244 101 0
h -245 102 0
h -246 103 0
h -247 104 0
h -248 105 0
h -249 106 0
h -250 107 0
h -251 108 0
h -252 109 0
h -253 110 0
h -254 111 0
h -255 112 0
h -256 113 0
h -244 -257 102 0
h -244 -258 103 0
h -244 -259 104 0
h -244 -260 105 0
h -244 -261 106 0
h -244 -262 107 0
h -244 -263 108 0
h -244 -264 109 0
h -244 -265 110 0
h -244 -266 111 0
h -244 -267 112 0
h -244 -268 113 0
h -245 -257 103 0
h -245 -258 104 0
h -245 -259 105 0
h -245 -260 106 0
h -245 -261 107 0
h -245 -262 108 0
h -245 -263 109 0
h -245 -264 110 0
h -245 -265 111 0
h -245 -266 112 0
h -245 -267 113 0
h -245 -268 114 0
h -246 -257 104 0
h -246 -258 105 0
h -246 -259 106 0
h -246 -260 107 0
h -246 -261 108 0
h -246 -262 109 0
h -246 -263 110 0
h -246 -264 111 0
h -246 -265 112 0
h -246 -266 113 0
h -246 -267 114 0
h -246 -268 115 0
h -247 -257 105 0
h -247 -258 106 0
h -247 -259 107 0
h -247 -260 108 0
h -247 -261 109 0
h -247 -262 110 0
h -247 -263 111 0
h -247 -264 112 0
h -247 -265 113 0
h -247 -266 114 0
h -247 -267 115 0
h -247 -268 116 0
h -248 -257 106 0
h -248 -258 107 0
h -248 -259 108 0
h -248 -260 109 0
h -248 -261 110 0
h -248 -262 111 0
h -248 -263 112 0
h -248 -264 113 0
h -248 -265 114 0
h -248 -266 115 0
h -248 -267 116 0
h -248 -268 117 0
h -249 -257 107 0
h -249 -258 108 0
h -249 -259 109 0
h -249 -260 110 0
h -249 -261 111 0
h -249 -262 112 0
h -249 -263 113 0
h -249 -264 114 0
h -249 -265 115 0
h -249 -266 116 0
h -249 -267 117 0
h -249 -268 118 0
h -250 -257 108 0
h -250 -258 109 0
h -250 -259 110 0
h -250 -260 111 0
h -250 -261 112 0
h -250 -262 113 0
h -250 -263 114 0
h -250 -264 115 0
h -250 -265 116 0
h -250 -266 117 0
h -250 -267 118 0
h -250 -268 119 0
h -251 -257 109 0
h -251 -258 110 0
h -251 -259 111 0
h -251 -260 112 0
h -251 -261 113 0
h -251 -262 114 0
h -251 -263 115 0
h -251 -264 116 0
h -251 -265 117 0
h -251 -266 118 0
h -251 -267 119 0
h -251 -268 120 0
h -252 -257 110 0
h -252 -258 111 0
h -252 -259 112 0
h -252 -260 113 0
h -252 -261 114 0
h -252 -262 115 0
h -252 -263 116 0
h -252 -264 117 0
h -252 -265 118 0
h -252 -266 119 0
h -252 -267 120 0
h -252 -268 121 0
h -253 -257 111 0
h -253 -258 112 0
h -253 -259 113 0
h -253 -260 114 0
h -253 -261 115 0
h -253 -262 116 0
h -253 -263 117 0
h -253 -264 118 0
h -253 -265 119 0
h -253 -266 120 0
h -253 -267 121 0
h -253 -268 122 0
h -254 -257 112 0
h -254 -258 113 0
h -254 -259 114 0
h -254 -260 115 0
h -254 -261 116 0
h -254 -262 117 0
h -254 -263 118 0
h -254 -264 119 0
h -254 -265 120 0
h -254 -266 121 0
h -254 -267 122 0
h -254 -268 123 0
h -255 -257 113 0
h -255 -258 114 0
h -255 -259 115 0
h -255 -260 116 0
h -255 -261 117 0
h -255 -262 118 0
h -255 -263 119 0
h -255 -264 120 0
h -255 -265 121 0
h -255 -266 122 0
h -255 -267 123 0
h -255 -268 124 0
h -256 -257 114 0
h -256 -258 115 0
h -256 -259 116 0
h -256 -260 117 0
h -256 -261 118 0
h -256 -262 119 0
h -256 -263 120 0
h -256 -264 121 0
h -256 -265 122 0
h -256 -266 123 0
h -256 -267 124 0
h -256 -268 125 0
h -275 257 0
h -276 258 0
h -277 259 0
h -278 260 0
h -279 261 0
h -280 262 0
h -269 257 0
h -270 258 0
h -271 259 0
h -272 260 0
h -273 261 0
h -274 262 0
h -269 -275 258 0
h -269 -276 259 0
h -269 -277 260 0
h -269 -278 261 0
h -269 -279 262 0
h -269 -280 263 0
h -270 -275 259 0
h -270 -276 260 0
h -270 -277 261 0
h -270 -278 262 0
h -270 -279 263 0
h -270 -280 264 0
h -271 -275 260 0
h -271 -276 261 0
h -271 -277 262 0
h -271 -278 263 0
h -271 -279 264 0
h -271 -280 265 0
h -272 -275 261 0
h -272 -276 262 0
h -272 -277 263 0
h -272 -278 264 0
h -272 -279 265 0
h -272 -280 266 0
h -273 -275 262 0
h -273 -276 263 0
h -273 -277 264 0
h -273 -278 265 0
h -273 -279 266 0
h -273 -280 267 0
h -274 -275 263 0
h -274 -276 264 0
h -274 -277 265 0
h -274 -278 266 0
h -274 -279 267 0
h -274 -280 268 0
h -284 275 0
h -285 276 0
h -286 277 0
h -281 275 0
h -282 276 0
h -283 277 0
h -281 -284 276 0
h -281 -285 277 0
h -281 -286 278 0
h -282 -284 277 0
h -282 -285 278 0
h -282 -286 279 0
h -283 -284 278 0
h -283 -285 279 0
h -283 -286 280 0
h -25 284 0
h -287 284 0
h -288 285 0
h -287 -25 285 0
h -288 -25 286 0
h -24 287 0
h -23 287 0
h -23 -24 288 0
h -22 281 0
h -289 281 0
h -290 282 0
h -289 -22 282 0
h -290 -22 283 0
h -21 289 0
h -20 289 0
h -20 -21 290 0
h -294 269 0
h -295 270 0
h -296 271 0
h -291 269 0
h -292 270 0
h -293 271 0
h -291 -294 270 0
h -291 -295 271 0
h -291 -296 272 0
h -292 -294 271 0
h -292 -295 272 0
h -292 -296 273 0
h -293 -294 272 0
h -293 -295 273 0
h -293 -296 274 0
h -19 294 0
h -297 294 0
h -298 295 0
h -297 -19 295 0
h -298 -19 296 0
h -18 297 0
h -17 297 0
h -17 -18 298 0
h -16 291 0
h -299 291 0
h -300 292 0
h -299 -16 292 0
h -300 -16 293 0
h -15 299 0
h -14 299 0
h -14 -15 300 0
h -308 244 0
h -309 245 0
h -310 246 0
h -311 247 0
h -312 248 0
h -313 249 0
h -301 244 0
h -302 245 0
h -303 246 0
h -304 247 0
h -305 248 0
h -306 249 0
h -307 250 0
h -301 -308 245 0
h -301 -309 246 0
h -301 -310 247 0
h -301 -311 248 0
h -301 -312 249 0
h -301 -313 250 0
h -302 -308 246 0
h -302 -309 247 0
h -302 -310 248 0
h -302 -311 249 0
h -302 -312 250 0
h -302 -313 251 0
h -303 -308 247 0
h -303 -309 248 0
h -303 -310 249 0
h -303 -311 250 0
h -303 -312 251 0
h -303 -313 252 0
h -304 -308 248 0
h -304 -309 249 0
h -304 -310 250 0
h -304 -311 251 0
h -304 -312 252 0
h -304 -313 253 0
h -305 -308 249 0
h -305 -309 250 0
h -305 -310 251 0
h -305 -311 252 0
h -305 -312 253 0
h -305 -313 254 0
h -306 -308 250 0
h -306 -309 251 0
h -306 -310 252 0
h -306 -311 253 0
h -306 -312 254 0
h -306 -313 255 0
h -307 -308 251 0
h -307 -309 252 0
h -307 -310 253 0
h -307 -311 254 0
h -307 -312 255 0
h -307 -313 256 0
h -317 308 0
h -318 309 0
h -319 310 0
h -314 308 0
h -315 309 0
h -316 310 0
h -314 -317 309 0
h -314 -318 310 0
h -314 -319 311 0
h -315 -317 310 0
h -315 -318 311 0
h -315 -319 312 0
h -316 -317 311 0
h -316 -318 312 0
h -316 -319 313 0
h -13 317 0
h -320 317 0
h -321 318 0
h -320 -13 318 0
h -321 -13 319 0
h -12 320 0
h -11 320 0
h -11 -12 321 0
h -10 314 0
h -322 314 0
h -323 315 0
h -322 -10 315 0
h -323 -10 316 0
h -9 322 0
h -8 322 0
h -8 -9 323 0
h -328 301 0
h -329 302 0
h -330 303 0
h -324 301 0
h -325 302 0
h -326 303 0
h -327 304 0
h -324 -328 302 0
h -324 -329 303 0
h -324 -330 304 0
h -325 -328 303 0
h -325 -329 304 0
h -325 -330 305 0
h -326 -328 304 0
h -326 -329 305 0
h -326 -330 306 0
h -327 -328 305 0
h -327 -329 306 0
h -327 -330 307 0
h -7 328 0
h -331 328 0
h -332 329 0
h -331 -7 329 0
h -332 -7 330 0
h -6 331 0
h -5 331 0
h -5 -6 332 0
h -335 324 0
h -336 325 0
h -333 324 0
h -334 325 0
h -333 -335 325 0
h -333 -336 326 0
h -334 -335 326 0
h -334 -336 327 0
h -4 335 0
h -3 335 0
h -3 -4 336 0
h -2 333 0
h -1 333 0
h -1 -2 334 0
h -71 0
